(set-info :smt-lib-version 2.6)
(set-logic QF_FP)
(set-info :source |
Generated by: Chenqi Cui
Generated on: 2025-12-25
Generator: AutoSMTGen
Application: Generating SMT constraints with small solution spaces to make them challenging for SMT solvers
Target solver: Z3, CVC5, Bitwuzla
|)
(set-info :license "https://creativecommons.org/licenses/by/4.0/")
(set-info :category "industrial")
(set-info :status sat)
; benchmark generated from python API

(declare-fun x7 () (_ FloatingPoint 11 53))
(declare-fun x6 () (_ FloatingPoint 11 53))
(declare-fun x5 () (_ FloatingPoint 11 53))
(declare-fun x4 () (_ FloatingPoint 11 53))
(declare-fun x3 () (_ FloatingPoint 11 53))
(declare-fun x2 () (_ FloatingPoint 11 53))
(declare-fun x1 () (_ FloatingPoint 11 53))
(declare-fun x0 () (_ FloatingPoint 11 53))
(assert
 (let ((?x18 (fp.add roundNearestTiesToEven (fp.mul roundNearestTiesToEven (fp #b0 #b10000000100 #x7c2dfee7c2104) x0) (fp.mul roundNearestTiesToEven (fp #b1 #b10000000101 #x88c207b925399) x1))))
 (let ((?x21 (fp.add roundNearestTiesToEven ?x18 (fp.mul roundNearestTiesToEven (fp #b0 #b10000000010 #x9b62d20b5eff8) x2))))
 (let ((?x24 (fp.add roundNearestTiesToEven ?x21 (fp.mul roundNearestTiesToEven (fp #b1 #b10000000011 #x2368445db2629) x3))))
 (let ((?x27 (fp.add roundNearestTiesToEven ?x24 (fp.mul roundNearestTiesToEven (fp #b0 #b10000000010 #x928c4a26679ba) x4))))
 (let ((?x30 (fp.add roundNearestTiesToEven ?x27 (fp.mul roundNearestTiesToEven (fp #b1 #b10000000100 #x61ba33bb69bfd) x5))))
 (let ((?x33 (fp.add roundNearestTiesToEven ?x30 (fp.mul roundNearestTiesToEven (fp #b0 #b10000000100 #x8560a3913d256) x6))))
 (let ((?x36 (fp.add roundNearestTiesToEven ?x33 (fp.mul roundNearestTiesToEven (fp #b1 #b10000000101 #x51287149cb51e) x7))))
 (fp.leq ?x36 (fp #b1 #b10000000101 #x76aa28af2e926))))))))))
(assert
 (let ((?x60 (fp.add roundNearestTiesToEven (fp.mul roundNearestTiesToEven (fp #b0 #b10000000101 #x3e5f38161416e) x0) (fp.mul roundNearestTiesToEven (fp #b0 #b10000000011 #xbcaae2a5df869) x1))))
 (let ((?x63 (fp.add roundNearestTiesToEven ?x60 (fp.mul roundNearestTiesToEven (fp #b1 #b10000000101 #x3907d882ffa0b) x2))))
 (let ((?x66 (fp.add roundNearestTiesToEven ?x63 (fp.mul roundNearestTiesToEven (fp #b0 #b10000000100 #x0ca264ede65bd) x3))))
 (let ((?x69 (fp.add roundNearestTiesToEven ?x66 (fp.mul roundNearestTiesToEven (fp #b0 #b10000000101 #x84a6cdb75aeeb) x4))))
 (let ((?x72 (fp.add roundNearestTiesToEven ?x69 (fp.mul roundNearestTiesToEven (fp #b1 #b10000000011 #x469a5a144147b) x5))))
 (let ((?x75 (fp.add roundNearestTiesToEven ?x72 (fp.mul roundNearestTiesToEven (fp #b0 #b10000000100 #x0f25058259fc0) x6))))
 (let ((?x78 (fp.add roundNearestTiesToEven ?x75 (fp.mul roundNearestTiesToEven (fp #b0 #b10000000101 #x03497780a5b36) x7))))
 (fp.leq ?x78 (fp #b0 #b10000000010 #xde97cc6040cb3))))))))))
(assert
 (let ((?x85 (fp.add roundNearestTiesToEven (fp.mul roundNearestTiesToEven (fp #b0 #b10000000010 #xc8fcb148920d0) x0) (fp.mul roundNearestTiesToEven (fp #b1 #b10000000100 #x31fe95866e351) x1))))
 (let ((?x88 (fp.add roundNearestTiesToEven ?x85 (fp.mul roundNearestTiesToEven (fp #b1 #b10000000011 #xd6fd69e951977) x2))))
 (let ((?x91 (fp.add roundNearestTiesToEven ?x88 (fp.mul roundNearestTiesToEven (fp #b0 #b10000000011 #x488e60d08bbc7) x3))))
 (let ((?x94 (fp.add roundNearestTiesToEven ?x91 (fp.mul roundNearestTiesToEven (fp #b0 #b10000000101 #x0c4d264ae2f5e) x4))))
 (let ((?x97 (fp.add roundNearestTiesToEven ?x94 (fp.mul roundNearestTiesToEven (fp #b1 #b10000000101 #x409d5e710512d) x5))))
 (let ((?x100 (fp.add roundNearestTiesToEven ?x97 (fp.mul roundNearestTiesToEven (fp #b0 #b10000000101 #x570bcd84fbba8) x6))))
 (let ((?x103 (fp.add roundNearestTiesToEven ?x100 (fp.mul roundNearestTiesToEven (fp #b0 #b10000000100 #xbf2fe07794118) x7))))
 (fp.leq ?x103 (fp #b0 #b10000000011 #xbc6b556739efb))))))))))
(assert
 (let ((?x110 (fp.add roundNearestTiesToEven (fp.mul roundNearestTiesToEven (fp #b0 #b10000000101 #x26462b4d02335) x0) (fp.mul roundNearestTiesToEven (fp #b0 #b10000000101 #x89ef8969a1f5c) x1))))
 (let ((?x113 (fp.add roundNearestTiesToEven ?x110 (fp.mul roundNearestTiesToEven (fp #b0 #b10000000010 #x3719b4d6872cd) x2))))
 (let ((?x116 (fp.add roundNearestTiesToEven ?x113 (fp.mul roundNearestTiesToEven (fp #b0 #b10000000101 #x9fb65d3574647) x3))))
 (let ((?x119 (fp.add roundNearestTiesToEven ?x116 (fp.mul roundNearestTiesToEven (fp #b0 #b10000000011 #x0231e850cbc9d) x4))))
 (let ((?x122 (fp.add roundNearestTiesToEven ?x119 (fp.mul roundNearestTiesToEven (fp #b0 #b10000000101 #x6f93e81156a6e) x5))))
 (let ((?x125 (fp.add roundNearestTiesToEven ?x122 (fp.mul roundNearestTiesToEven (fp #b0 #b01111111111 #x528a99330396c) x6))))
 (let ((?x128 (fp.add roundNearestTiesToEven ?x125 (fp.mul roundNearestTiesToEven (fp #b1 #b10000000011 #x33619fb93bc4e) x7))))
 (fp.leq ?x128 (fp #b1 #b10000000100 #xf728a6db464b3))))))))))
(assert
 (let ((?x135 (fp.add roundNearestTiesToEven (fp.mul roundNearestTiesToEven (fp #b1 #b10000000000 #x2d4bbeac99ea4) x0) (fp.mul roundNearestTiesToEven (fp #b1 #b10000000101 #x69c264fdb012d) x1))))
 (let ((?x138 (fp.add roundNearestTiesToEven ?x135 (fp.mul roundNearestTiesToEven (fp #b1 #b10000000010 #x9f0ffb6af4b2a) x2))))
 (let ((?x141 (fp.add roundNearestTiesToEven ?x138 (fp.mul roundNearestTiesToEven (fp #b0 #b10000000011 #x59877fa14b1ef) x3))))
 (let ((?x144 (fp.add roundNearestTiesToEven ?x141 (fp.mul roundNearestTiesToEven (fp #b0 #b01111111100 #xbbf2b88590528) x4))))
 (let ((?x147 (fp.add roundNearestTiesToEven ?x144 (fp.mul roundNearestTiesToEven (fp #b1 #b10000000100 #x607aeb523c706) x5))))
 (let ((?x150 (fp.add roundNearestTiesToEven ?x147 (fp.mul roundNearestTiesToEven (fp #b0 #b01111111110 #xf909db4c3738e) x6))))
 (let ((?x153 (fp.add roundNearestTiesToEven ?x150 (fp.mul roundNearestTiesToEven (fp #b0 #b10000000001 #x42749ce483995) x7))))
 (fp.leq ?x153 (fp #b1 #b10000000100 #x39a1a109fc8b9))))))))))
(assert
 (let ((?x160 (fp.add roundNearestTiesToEven (fp.mul roundNearestTiesToEven (fp #b0 #b10000000011 #xc0fac204c4c98) x0) (fp.mul roundNearestTiesToEven (fp #b0 #b01111111111 #x22a69d53e7601) x1))))
 (let ((?x163 (fp.add roundNearestTiesToEven ?x160 (fp.mul roundNearestTiesToEven (fp #b0 #b10000000101 #x6745c40c7ccef) x2))))
 (let ((?x166 (fp.add roundNearestTiesToEven ?x163 (fp.mul roundNearestTiesToEven (fp #b0 #b10000000011 #xa04ea615038f0) x3))))
 (let ((?x169 (fp.add roundNearestTiesToEven ?x166 (fp.mul roundNearestTiesToEven (fp #b0 #b10000000101 #x520d8b401ffab) x4))))
 (let ((?x172 (fp.add roundNearestTiesToEven ?x169 (fp.mul roundNearestTiesToEven (fp #b1 #b10000000101 #x6cf76865d1eb1) x5))))
 (let ((?x175 (fp.add roundNearestTiesToEven ?x172 (fp.mul roundNearestTiesToEven (fp #b1 #b01111111110 #x3071422bca158) x6))))
 (let ((?x178 (fp.add roundNearestTiesToEven ?x175 (fp.mul roundNearestTiesToEven (fp #b1 #b10000000101 #x48329d23179ff) x7))))
 (fp.leq ?x178 (fp #b1 #b10000000100 #x8dc68eb9e12d6))))))))))
(assert
 (let ((?x185 (fp.add roundNearestTiesToEven (fp.mul roundNearestTiesToEven (fp #b1 #b10000000101 #xb4f1ed7b59334) x0) (fp.mul roundNearestTiesToEven (fp #b1 #b10000000100 #xb919a793341b4) x1))))
 (let ((?x188 (fp.add roundNearestTiesToEven ?x185 (fp.mul roundNearestTiesToEven (fp #b0 #b10000000100 #xbd3c02d61d2f4) x2))))
 (let ((?x191 (fp.add roundNearestTiesToEven ?x188 (fp.mul roundNearestTiesToEven (fp #b1 #b10000000101 #x0da63d07d51d0) x3))))
 (let ((?x194 (fp.add roundNearestTiesToEven ?x191 (fp.mul roundNearestTiesToEven (fp #b0 #b10000000011 #x10c78daf9eb6c) x4))))
 (let ((?x197 (fp.add roundNearestTiesToEven ?x194 (fp.mul roundNearestTiesToEven (fp #b0 #b10000000101 #x6b5e944e0fbbb) x5))))
 (let ((?x200 (fp.add roundNearestTiesToEven ?x197 (fp.mul roundNearestTiesToEven (fp #b0 #b10000000100 #x1bbd8e06f07ce) x6))))
 (let ((?x203 (fp.add roundNearestTiesToEven ?x200 (fp.mul roundNearestTiesToEven (fp #b1 #b10000000100 #x49f3b9a26b2a0) x7))))
 (fp.leq ?x203 (fp #b0 #b10000000100 #xc416f57be6e55))))))))))
(assert
 (let ((?x210 (fp.add roundNearestTiesToEven (fp.mul roundNearestTiesToEven (fp #b0 #b10000000100 #x29e75998afeae) x0) (fp.mul roundNearestTiesToEven (fp #b1 #b10000000001 #x842ccac9af46a) x1))))
 (let ((?x213 (fp.add roundNearestTiesToEven ?x210 (fp.mul roundNearestTiesToEven (fp #b1 #b10000000101 #x837bb642b19bf) x2))))
 (let ((?x216 (fp.add roundNearestTiesToEven ?x213 (fp.mul roundNearestTiesToEven (fp #b1 #b01111111111 #x55257ac0174fe) x3))))
 (let ((?x219 (fp.add roundNearestTiesToEven ?x216 (fp.mul roundNearestTiesToEven (fp #b1 #b10000000100 #x8742c1d8453ca) x4))))
 (let ((?x222 (fp.add roundNearestTiesToEven ?x219 (fp.mul roundNearestTiesToEven (fp #b1 #b10000000011 #xf7898a5890cc8) x5))))
 (let ((?x225 (fp.add roundNearestTiesToEven ?x222 (fp.mul roundNearestTiesToEven (fp #b0 #b10000000011 #x4f6d1b7a79dcb) x6))))
 (let ((?x228 (fp.add roundNearestTiesToEven ?x225 (fp.mul roundNearestTiesToEven (fp #b0 #b10000000011 #x166d1b6e58257) x7))))
 (fp.leq ?x228 (fp #b0 #b10000000100 #xd7b9689a92b8d))))))))))
(assert
 (let ((?x235 (fp.add roundNearestTiesToEven (fp.mul roundNearestTiesToEven (fp #b1 #b10000000101 #xb541825a5db09) x0) (fp.mul roundNearestTiesToEven (fp #b1 #b10000000011 #xa348731710a35) x1))))
 (let ((?x238 (fp.add roundNearestTiesToEven ?x235 (fp.mul roundNearestTiesToEven (fp #b0 #b10000000010 #x199ad2d1eba18) x2))))
 (let ((?x241 (fp.add roundNearestTiesToEven ?x238 (fp.mul roundNearestTiesToEven (fp #b0 #b01111111111 #xd53e649520138) x3))))
 (let ((?x244 (fp.add roundNearestTiesToEven ?x241 (fp.mul roundNearestTiesToEven (fp #b1 #b10000000011 #x0f2cc43a4b485) x4))))
 (let ((?x247 (fp.add roundNearestTiesToEven ?x244 (fp.mul roundNearestTiesToEven (fp #b0 #b10000000101 #x3ca174586ecbb) x5))))
 (let ((?x250 (fp.add roundNearestTiesToEven ?x247 (fp.mul roundNearestTiesToEven (fp #b1 #b10000000100 #x79bc63e7632be) x6))))
 (let ((?x253 (fp.add roundNearestTiesToEven ?x250 (fp.mul roundNearestTiesToEven (fp #b1 #b10000000010 #x8358dbbd13a61) x7))))
 (fp.leq ?x253 (fp #b0 #b10000000100 #x95109692cedfc))))))))))
(assert
 (let ((?x260 (fp.add roundNearestTiesToEven (fp.mul roundNearestTiesToEven (fp #b1 #b10000000100 #xa1e229e0e9ff2) x0) (fp.mul roundNearestTiesToEven (fp #b1 #b10000000011 #x1e949035d92e6) x1))))
 (let ((?x263 (fp.add roundNearestTiesToEven ?x260 (fp.mul roundNearestTiesToEven (fp #b1 #b10000000100 #xfa82ed159f1cb) x2))))
 (let ((?x266 (fp.add roundNearestTiesToEven ?x263 (fp.mul roundNearestTiesToEven (fp #b0 #b10000000101 #x10c54d519b144) x3))))
 (let ((?x269 (fp.add roundNearestTiesToEven ?x266 (fp.mul roundNearestTiesToEven (fp #b0 #b10000000101 #x5a3e99592a024) x4))))
 (let ((?x272 (fp.add roundNearestTiesToEven ?x269 (fp.mul roundNearestTiesToEven (fp #b1 #b10000000100 #x3cfa5b650788c) x5))))
 (let ((?x275 (fp.add roundNearestTiesToEven ?x272 (fp.mul roundNearestTiesToEven (fp #b1 #b10000000000 #x793965eb1ae37) x6))))
 (let ((?x278 (fp.add roundNearestTiesToEven ?x275 (fp.mul roundNearestTiesToEven (fp #b1 #b10000000101 #x1d022c6f0aa01) x7))))
 (fp.leq ?x278 (fp #b1 #b10000000100 #xe03c4d4a9932e))))))))))
(assert
 (let ((?x285 (fp.add roundNearestTiesToEven (fp.mul roundNearestTiesToEven (fp #b0 #b10000000010 #x7a3d3670468bf) x0) (fp.mul roundNearestTiesToEven (fp #b0 #b10000000100 #x68975f70e62bf) x1))))
 (let ((?x288 (fp.add roundNearestTiesToEven ?x285 (fp.mul roundNearestTiesToEven (fp #b1 #b10000000011 #x93b948f264dc0) x2))))
 (let ((?x291 (fp.add roundNearestTiesToEven ?x288 (fp.mul roundNearestTiesToEven (fp #b1 #b10000000011 #x546abad818dcb) x3))))
 (let ((?x294 (fp.add roundNearestTiesToEven ?x291 (fp.mul roundNearestTiesToEven (fp #b0 #b10000000001 #x52add53120e19) x4))))
 (let ((?x297 (fp.add roundNearestTiesToEven ?x294 (fp.mul roundNearestTiesToEven (fp #b1 #b10000000101 #x5d791879b9afb) x5))))
 (let ((?x300 (fp.add roundNearestTiesToEven ?x297 (fp.mul roundNearestTiesToEven (fp #b1 #b10000000101 #x486b74a518e6a) x6))))
 (let ((?x303 (fp.add roundNearestTiesToEven ?x300 (fp.mul roundNearestTiesToEven (fp #b0 #b10000000011 #xfa0ce643c0ecb) x7))))
 (fp.leq ?x303 (fp #b0 #b10000000011 #xe39d68247eacc))))))))))
(assert
 (let ((?x310 (fp.add roundNearestTiesToEven (fp.mul roundNearestTiesToEven (fp #b0 #b10000000100 #xeae0c4ac5234e) x0) (fp.mul roundNearestTiesToEven (fp #b1 #b10000000100 #xdcd5f2737d886) x1))))
(let ((?x313 (fp.add roundNearestTiesToEven ?x310 (fp.mul roundNearestTiesToEven (fp #b1 #b10000000011 #x66c647b96642d) x2))))
(let ((?x316 (fp.add roundNearestTiesToEven ?x313 (fp.mul roundNearestTiesToEven (fp #b1 #b10000000000 #x4b6ee1d266166) x3))))
(let ((?x319 (fp.add roundNearestTiesToEven ?x316 (fp.mul roundNearestTiesToEven (fp #b1 #b10000000101 #x9a9584a62bd1c) x4))))
(let ((?x322 (fp.add roundNearestTiesToEven ?x319 (fp.mul roundNearestTiesToEven (fp #b1 #b10000000101 #x54e25895484bd) x5))))
(let ((?x325 (fp.add roundNearestTiesToEven ?x322 (fp.mul roundNearestTiesToEven (fp #b0 #b10000000101 #x855869b0f585a) x6))))
(let ((?x328 (fp.add roundNearestTiesToEven ?x325 (fp.mul roundNearestTiesToEven (fp #b0 #b10000000101 #x8bc1eb3ae8f84) x7))))
(fp.leq ?x328 (fp #b0 #b10000000001 #xdb3fcb20e9e77))))))))))
(check-sat)
(exit)
